15
aimel_000095
C  -0.470060   1.442069  -0.066850
C   0.142870   0.054850   0.037480
C   1.372549  -0.302950  -0.846790
C   1.959479  -1.093650   0.353260
C   0.998870  -0.307690   1.285629
H   0.292110   2.218449   0.068440
H  -0.936150   1.600949  -1.046130
H  -1.241480   1.597069   0.696280
H  -0.635170  -0.705600  -0.100550
H   1.193380  -0.841180  -1.781289
H   1.968679   0.588580  -1.070040
H   1.698739  -2.155009   0.305210
H   3.032539  -1.010770   0.541480
H   1.482899   0.582420   1.702109
H   0.513040  -0.849800   2.101209