17
aimel_000133
C  -0.040690   1.566639   0.048710
C   0.001690   0.036910   0.001970
C   0.710060  -0.509590  -1.242220
C   0.758410  -2.040249  -1.298789
C   1.467779  -2.575539  -2.545499
H   0.969830   1.990519   0.048880
H  -0.567860   1.974469  -0.821120
H  -0.552480   1.927269   0.946620
H   0.504960  -0.343930   0.900710
H  -1.021670  -0.359900   0.038540
H   0.207190  -0.128920  -2.142619
H   1.734469  -0.112540  -1.280319
H   1.261419  -2.419259  -0.399120
H  -0.265450  -2.435639  -1.260859
H   0.966080  -2.240809  -3.460429
H   2.504709  -2.224189  -2.592099
H   1.486839  -3.669929  -2.558319