15
aimel_000136
C  -0.001270   1.509429  -0.021150
C   0.014720  -0.009970  -0.018320
O   0.675550  -0.457080  -1.182520
C   0.745680  -1.863349  -1.279689
C   1.473759  -2.226619  -2.562959
H   1.018920   1.903469  -0.035720
H  -0.525340   1.885709  -0.904340
H  -0.507840   1.888129   0.871710
H   0.528800  -0.389310   0.882030
H  -1.014870  -0.407190   0.012670
H   1.273579  -2.280689  -0.404510
H  -0.269370  -2.297459  -1.275159
H   0.942330  -1.827179  -3.431459
H   2.485369  -1.810819  -2.560659
H   1.544489  -3.313459  -2.667889