15
aimel_000159
C  -0.020040   1.544839   0.013540
C   1.462379   1.987409  -0.006290
C   2.221949   0.793110   0.592660
C   1.495269  -0.416860  -0.015780
C   0.000980  -0.014200  -0.000300
H  -0.511570   1.907959   0.921810
H  -0.579390   1.959899  -0.829530
H   1.794209   2.146869  -1.039630
H   1.632299   2.923979   0.532730
H   3.293979   0.808430   0.374300
H   2.110879   0.787580   1.684899
H   1.835509  -0.562280  -1.048420
H   1.687679  -1.351599   0.518790
H  -0.489370  -0.407340   0.895980
H  -0.538860  -0.428200  -0.856470