15
aimel_000220
C  -0.012200   1.543169  -0.001240
C  -0.002240  -0.001220   0.009450
C   0.759530  -0.523000   1.247590
C  -1.447409  -0.546040   0.000860
C   0.687560  -0.476150  -1.202940
N   1.228850  -0.848660  -2.154119
H   1.004760   1.944239  -0.008980
H  -0.538540   1.927399  -0.879000
H  -0.521480   1.910409   0.895240
H   0.258360  -0.175780   2.156489
H   0.784860  -1.615779   1.263399
H   1.789329  -0.156310   1.259939
H  -1.995829  -0.194760  -0.877150
H  -1.456169  -1.639199  -0.004680
H  -1.972079  -0.200670   0.897120