14
aimel_000225
C  -0.208340   1.562019   0.016410
C  -0.049850   0.031400   0.015450
C   0.869690  -0.443210   1.145920
O  -1.320379  -0.613310   0.060450
C   0.532020  -0.378880  -1.339269
O   1.679989  -0.210590  -1.656059
H   0.760810   2.049889  -0.117420
H  -0.878470   1.880809  -0.787210
H  -0.633890   1.893769   0.970530
H   0.512280  -0.072120   2.112799
H   0.893450  -1.535719   1.180660
H   1.886149  -0.076360   0.984120
H  -1.757599  -0.355560   0.878240
H  -0.216860  -0.835320  -2.023019