18
aimel_000229
C   0.024980   1.560619   0.122650
C  -0.005050   0.038320  -0.040460
C   0.692780  -0.497740  -1.304679
C   0.657060  -2.033199  -1.304989
C   0.062780   0.050220  -2.593979
O   2.052519  -0.052110  -1.201970
H   1.050850   1.931619   0.060900
H  -0.566540   2.068259  -0.645730
H  -0.386830   1.849909   1.094510
H   0.488940  -0.424110   0.822260
H  -1.040800  -0.322090  -0.038620
H  -0.370580  -2.410359  -1.335089
H   1.182550  -2.433579  -2.180269
H   1.145150  -2.423899  -0.407540
H   0.157110   1.137430  -2.644309
H   0.563640  -0.372700  -3.473169
H  -0.998360  -0.211390  -2.662629
H   2.519629  -0.349710  -1.989589