18
aimel_000230
C   0.087040   1.394379   0.008720
O  -0.030020  -0.009000   0.002400
C  -1.350279  -0.574680   0.011940
C  -2.137119  -0.166240  -1.244010
C  -1.088530  -2.084449   0.001290
C  -2.112949  -0.179920   1.287039
H   1.158250   1.613939  -0.000140
H  -0.365540   1.865799  -0.875380
H  -0.348860   1.856389   0.906070
H  -1.558709  -0.392910  -2.144719
H  -3.082129  -0.715700  -1.294829
H  -2.378939   0.900580  -1.247950
H  -0.503930  -2.372409   0.879500
H  -2.028309  -2.644429   0.007250
H  -0.520870  -2.362849  -0.891010
H  -2.354529   0.886780   1.307119
H  -3.056879  -0.729980   1.349959
H  -1.517469  -0.416250   2.174019