14
aimel_000254
C  -0.029000   1.458399   0.014770
N   0.011480   0.003710   0.026990
C   0.807460  -0.511040   1.134050
C  -1.333509  -0.551230   0.005510
C  -1.332039  -2.001329  -0.224880
N  -1.345049  -3.143669  -0.394840
H   0.991940   1.846809  -0.034090
H  -0.569030   1.810479  -0.869770
H  -0.515000   1.889839   0.910750
H   0.400660  -0.230320   2.124139
H   0.859460  -1.601609   1.080790
H   1.824719  -0.117180   1.059780
H  -1.901349  -0.357950   0.937990
H  -1.897409  -0.082040  -0.808640