16
aimel_000255
C  -0.030150   1.540359  -0.041670
C   0.021790   0.011740   0.068590
C   0.851830  -0.431600   1.281309
C  -1.402639  -0.581900   0.119400
C  -1.409049  -2.086239  -0.020080
O  -1.929419  -2.857139   0.744540
H   0.978160   1.963199  -0.097290
H  -0.579500   1.859479  -0.933470
H  -0.526640   1.979259   0.831510
H   0.508720  -0.375450  -0.838490
H   0.409800  -0.057820   2.212209
H   0.908930  -1.522099   1.359619
H   1.874129  -0.045570   1.218360
H  -1.916699  -0.310700   1.047470
H  -1.986389  -0.180190  -0.722020
H  -0.872620  -2.457839  -0.926870