14
aimel_000258
C  -0.083510   1.561659   0.050060
C  -0.062260   0.034600   0.023310
O   0.203190  -0.465610  -1.284169
C   0.930280  -0.548010   1.048960
C   0.888390  -2.060829   1.106730
O   0.863280  -2.700379   2.127789
H   0.913180   1.967169  -0.166050
H  -0.780040   1.941009  -0.702470
H  -0.389530   1.937939   1.031030
H  -1.067250  -0.338500   0.255660
H   1.020860  -0.059750  -1.594179
H   1.947849  -0.250720   0.750060
H   0.752020  -0.154210   2.054069
H   0.880070  -2.555949   0.112440