15
aimel_000259
C  -0.128030   1.493509   0.115250
N   0.022140   0.046730   0.039660
C   0.763360  -0.477330   1.176360
C  -1.252290  -0.618930  -0.155810
C  -1.786389  -0.395910  -1.562589
O  -2.952589  -0.378790  -1.855719
H   0.858080   1.965049   0.161670
H  -0.638490   1.868069  -0.777870
H  -0.708970   1.821619   0.998090
H   0.256070  -0.310270   2.145249
H   0.918600  -1.553819   1.055400
H   1.745379   0.003590   1.225860
H  -1.098760  -1.703529  -0.060260
H  -2.034979  -0.339640   0.573050
H  -0.981450  -0.274810  -2.323319